Methoden/Kategorie B/Mischungsplanung 3.1/05 Archiv/Mischungsplaner3.0/03 Source Code/Mischung2004/XA/ALLOYI.LP
..TITLE
  Alloy Blending
..OBJECTIVE  MINIMIZE
  .03 BIN1 + 0.08 BIN2 + .17 BIN3 + .12 BIN4
  .15 BIN5 + .21 ALUM + 0.38 SILCON
* ZERO-ONE INTEGER VARIABLES
    0 ( [ B2 + B3 + B4 + B5 ] )
..BOUNDS
  BIN1 <= 200
  BIN2 <= 750
  BIN3 <= 800 >= 000
  BIN4 <= 700 >= 000
  BIN5 <= 1500
..CONSTRAINTS
YIELD: BIN1 + BIN2 + BIN3 + BIN4 + BIN5 + ALUM + SILCON = 2000
FE: 0.15 BIN1 + .04 BIN2 + .02 BIN3 + .04 BIN4
     .02 BIN5 + .01 ALUM + .03 SILCON <= 60
CU: 0.03 BIN1 + .05 BIN2 + .08 BIN3 + .02 BIN4
     .06 BIN5 + .01 ALUM <= 100
MN:  .02 BIN1 + .04 BIN2 + .01 BIN3 + .02 BIN4
     .02 BIN5 <= 40
MG:  .02 BIN1 + .03 BIN2 + .01 BIN5 <= 30
AL:  .70 BIN1 + .75 BIN2 + .80 BIN3 + .75 BIN4
     .80 BIN5 + .97 ALUM  >= 1500
SI:  .02 BIN1 + .06 BIN2 + .08 BIN3 + .12 BIN4
     .02 BIN5 + .01 ALUM + .97 SILCON >= 250 <= 300
* ONLY ONE VALUE FROM BIN1 OR BIN2 AT TIME
B 2-3:  B2 + B3 <= 1
BIN2 USED: BIN2 - 750 B2 <= 0
BIN3 USED: BIN3 - 800 B3 <= 0
* ONLY ONE VALUE FROM BIN4 OR BIN5 AT TIME
B 4-5:  B4 + B5 <= 1
BIN4 USED: BIN4 -  700 B4 <= 0
BIN5 USED: BIN5 - 1500 B5 <= 0
